OL 1 DD 0 0 0 0 0 0 0 0 0 0 0 0 0 0 0 0 0 0 0 0 0 0 0 0 0 0 0 0 0 0 0 0 0 0 0 0 0 0 0 0 0 0 0 0 0 0 0 0 0 0

OL 1 DD_pt 0 0 0 0 0 0 0 0 0 0 0 0 0 0 0 0 0 0 0 0 0 0 0 0 0 0 0 0 0 0 0 0 0 0 0 0 0 0 0 0 0 0 0 0 0 0 0 0 0 0

OL 1 random 0 0 0 0 0 0 0 0 0 0 0 0 0 0 0 0 0 0 0 0 0 0 0 0 0 0 0 0 0 0 0 0 0 0 0 0 0 0 0 0 0 0 0 0 0 0 0 0 0 0

OL 5 DD 0 0 0 0 0 0 0 0 0 0 0 0 0 0 0 0 0 0 0 0 0 0 0 0 0 0 0 0 0 0 0 0 0 0 0 0 0 0 0 0 0 0 0 0 0 0 0 0 0 0

OL 5 DD_pt 0 0 0 0 0 0 0 0 0 0 0 0 0 0 0 0 0 0 0 0 0 0 0 0 0 0 0 0 0 0 0 0 0 0 0 0 0 0 0 0 0 0 0 0 0 0 0 0 0 0

OL 5 random 0 0 0 0 0 0 0 0 0 0 0 0 0 0 0 0 0 0 0 0 0 0 0 0 0 0 0 0 0 0 0 0 0 0 0 0 0 0 0 0 0 0 0 0 0 0 0 0 0 0

OL 1000 DD 3783 3432 1440 3302 2092 2188 1921 2442 789 4195 2087 2136 1764 2671 1524 2552 933 2877 2592 1844 1501 2466 1546 5230 3913 2807 3715 6332 2239 2791 1968 2290 4004 3037 3556 4194 0 1884 1475 2290 2276 2141 2358 2322 2551 3455 1061 2107 2095 3362

OL 1000 DD_pt 3444 4958 3268 5068 3620 2366 3906 1976 4075 4806 3063 2884 3403 3182 2364 3169 2176 3480 4101 3609 2339 3422 3949 3707 5345 4639 3482 4596 1707 6479 1903 2053 3384 3463 4860 3598 0 2464 1399 0 3865 2194 3132 2093 3610 4017 3000 0 1357 2392

OL 1000 random 9076 5985 4248 6848 5025 5845 6184 5071 7339 5998 7950 8242 7900 5517 6109 8039 5170 5006 5787 8604 5562 9076 5946 10708 6951 8800 6020 9393 6875 7457 5446 6949 7261 6857 6792 6437 0 5900 4727 5869 5865 3964 0 5541 5112 8018 7545 6044 4706 5869

OL 5000 DD 109549 94600 125606 92684 144837 99332 86282 101681 99053 142212 100736 120164 97355 104953 110454 99812 105398 111585 85660 87978 121147 98774 107062 101831 241495 97204 98023 115117 110737 141646 91654 109604 115379 101912 97158 117377 0 102402 99374 130610 109559 97930 0 104892 101109 122408 147799 243102 107577 121744

OL 5000 DD_pt 105683 90304 100088 73619 101806 101850 82697 109602 96634 136205 76334 103112 84998 95250 96548 98564 104785 104637 83662 96557 75760 110343 116517 139428 258071 108232 112907 95853 110553 164566 93729 79195 78143 87880 99217 95648 0 100274 98527 0 97512 91871 88570 92283 83844 99114 154186 304867 135202 116618

OL 5000 random 224705 234489 226139 180652 224535 231511 195027 225212 181682 192401 211342 182006 201437 212863 229127 198776 192405 217046 217979 236826 189532 209642 241447 229867 301122 252578 244587 230208 229700 224162 214860 208636 201692 208791 215032 239563 0 184196 170816 199928 196194 191380 0 264594 235938 177400 212349 235522 210261 190164

OL 1 DD 0 0 0 0 0 0 0 0 0 0 0 0 0 0 0 0 0 0 0 0 0 0 0 0 0 0 0 0 0 0 0 0 0 0 0 0 0 0 0 0 0 0 0 0 0 0 0 0 0 0

OL 1 DD_pt 0 0 0 0 0 0 0 0 0 0 0 0 0 0 0 0 0 0 0 0 0 0 0 0 0 0 0 0 0 0 0 0 0 0 0 0 0 0 0 0 0 0 0 0 0 0 0 0 0 0

OL 1 random 0 0 0 0 0 0 0 0 0 0 0 0 0 0 0 0 0 0 0 0 0 0 0 0 0 0 0 0 0 0 0 0 0 0 0 0 0 0 0 0 0 0 0 0 0 0 0 0 0 0

OL 5 DD 0 0 0 0 0 0 0 0 0 0 0 0 0 0 0 0 0 0 0 0 0 0 0 0 0 0 0 0 0 0 0 0 0 0 0 0 0 0 0 0 0 0 0 0 0 0 0 0 0 0

OL 5 DD_pt 0 0 0 0 0 0 0 0 0 0 0 0 0 0 0 0 0 0 0 0 0 0 0 0 0 0 0 0 0 0 0 0 0 0 0 0 0 0 0 0 0 0 0 0 0 0 0 0 0 0

OL 5 random 0 0 0 0 0 0 0 0 0 0 0 0 0 0 0 0 0 0 0 0 0 0 0 0 0 0 0 0 0 0 0 0 0 0 0 0 0 0 0 0 0 0 0 0 0 0 0 0 0 0

OL 1 DD 0 0 0 0 0 0 0 0 0 0 0 0 0 0 0 0 0 0 0 0 0 0 0 0 0 0 0 0 0 0 0 0 0 0 0 0 0 0 0 0 0 0 0 0 0 0 0 0 0 0

OL 1 DD_pt 0 0 0 0 0 0 0 0 0 0 0 0 0 0 0 0 0 0 0 0 0 0 0 0 0 0 0 0 0 0 0 0 0 0 0 0 0 0 0 0 0 0 0 0 0 0 0 0 0 0

OL 1 random 0 0 0 0 0 0 0 0 0 0 0 0 0 0 0 0 0 0 0 0 0 0 0 0 0 0 0 0 0 0 0 0 0 0 0 0 0 0 0 0 0 0 0 0 0 0 0 0 0 0

OL 5 DD 0 0 0 0 0 0 0 0 0 0 0 0 0 0 0 0 0 0 0 0 0 0 0 0 0 0 0 0 0 0 0 0 0 0 0 0 0 0 0 0 0 0 0 0 0 0 0 0 0 0

OL 5 DD_pt 0 0 0 0 0 0 0 0 0 0 0 0 0 0 0 0 0 0 0 0 0 0 0 0 0 0 0 0 0 0 0 0 0 0 0 0 0 0 0 0 0 0 0 0 0 0 0 0 0 0

OL 5 random 0 0 0 0 0 0 0 0 0 0 0 0 0 0 0 0 0 0 0 0 0 0 0 0 0 0 0 0 0 0 0 0 0 0 0 0 0 0 0 0 0 0 0 0 0 0 0 0 0 0

OL 1 DD 0 0 0 0 0 0 0 0 0 0 0 0 0 0 0 0 0 0 0 0 0 0 0 0 0 0 0 0 0 0 0 0 0 0 0 0 0 0 0 0 0 0 0 0 0 0 0 0 0 0

OL 1 DD_pt 0 0 0 0 0 0 0 0 0 0 0 0 0 0 0 0 0 0 0 0 0 0 0 0 0 0 0 0 0 0 0 0 0 0 0 0 0 0 0 0 0 0 0 0 0 0 0 0 0 0

OL 1 random 0 0 0 0 0 0 0 0 0 0 0 0 0 0 0 0 0 0 0 0 0 0 0 0 0 0 0 0 0 0 0 0 0 0 0 0 0 0 0 0 0 0 0 0 0 0 0 0 0 0

OL 5 DD 0 0 0 0 0 0 0 0 0 0 0 0 0 0 0 0 0 0 0 0 0 0 0 0 0 0 0 0 0 0 0 0 0 0 0 0 0 0 0 0 0 0 0 0 0 0 0 0 0 0

OL 5 DD_pt 0 0 0 0 0 0 0 0 0 0 0 0 0 0 0 0 0 0 0 0 0 0 0 0 0 0 0 0 0 0 0 0 0 0 0 0 0 0 0 0 0 0 0 0 0 0 0 0 0 0

OL 5 random 0 0 0 0 0 0 0 0 0 0 0 0 0 0 0 0 0 0 0 0 0 0 0 0 0 0 0 0 0 0 0 0 0 0 0 0 0 0 0 0 0 0 0 0 0 0 0 0 0 0

